p cnf 762 2041
1 -2 0
2 -1 0
3 4 0
5 4 0
6 4 0
7 4 0
8 4 0
9 4 0
10 4 0
11 4 0
12 4 0
13 4 0
14 4 0
15 4 0
16 4 0
17 4 0
18 4 0
-19 0
-20 4 -21 0
20 -4 -21 0
21 -4 -20 0
20 4 21 0
-21 0
5 22 0
6 22 0
7 22 0
8 22 0
9 22 0
10 22 0
11 22 0
12 22 0
13 22 0
14 22 0
15 22 0
16 22 0
17 22 0
18 22 0
-23 0
22 -24 -25 0
24 -22 -25 0
25 -22 -24 0
24 22 25 0
-25 0
6 26 0
7 26 0
8 26 0
9 26 0
10 26 0
11 26 0
12 26 0
13 26 0
14 26 0
15 26 0
16 26 0
17 26 0
18 26 0
-27 0
26 -28 -29 0
28 -26 -29 0
29 -26 -28 0
28 26 29 0
-29 0
7 30 0
8 30 0
9 30 0
10 30 0
11 30 0
12 30 0
13 30 0
14 30 0
15 30 0
16 30 0
17 30 0
18 30 0
-31 0
30 -32 -33 0
32 -30 -33 0
33 -30 -32 0
32 30 33 0
-33 0
8 34 0
9 34 0
10 34 0
11 34 0
12 34 0
13 34 0
14 34 0
15 34 0
16 34 0
17 34 0
18 34 0
-35 0
34 -36 -37 0
36 -34 -37 0
37 -34 -36 0
36 34 37 0
-37 0
9 38 0
10 38 0
11 38 0
12 38 0
13 38 0
14 38 0
15 38 0
16 38 0
17 38 0
18 38 0
-39 0
38 -40 -41 0
40 -38 -41 0
41 -38 -40 0
40 38 41 0
-41 0
10 42 0
11 42 0
12 42 0
13 42 0
14 42 0
15 42 0
16 42 0
17 42 0
18 42 0
-43 0
42 -44 -45 0
44 -42 -45 0
45 -42 -44 0
44 42 45 0
-45 0
11 46 0
12 46 0
13 46 0
14 46 0
15 46 0
16 46 0
17 46 0
18 46 0
-47 0
46 -48 -49 0
48 -46 -49 0
49 -46 -48 0
48 46 49 0
-49 0
46 -50 -51 0
50 -46 -51 0
51 -46 -50 0
50 46 51 0
-51 0
13 52 0
14 52 0
15 52 0
16 52 0
17 52 0
18 52 0
11 52 0
12 52 0
-53 0
52 -54 -55 0
54 -52 -55 0
55 -52 -54 0
54 52 55 0
-55 0
46 -56 -57 0
56 -46 -57 0
57 -46 -56 0
56 46 57 0
-57 0
46 -58 -59 0
58 -46 -59 0
59 -46 -58 0
58 46 59 0
-59 0
46 -60 -61 0
60 -46 -61 0
61 -46 -60 0
60 46 61 0
-61 0
46 -62 -63 0
62 -46 -63 0
63 -46 -62 0
62 46 63 0
-63 0
46 -64 -65 0
64 -46 -65 0
65 -46 -64 0
64 46 65 0
-65 0
66 67 0
68 67 0
69 67 0
70 67 0
71 67 0
72 67 0
73 67 0
74 67 0
75 67 0
76 67 0
77 67 0
78 67 0
79 67 0
-80 0
-81 67 -82 0
81 -67 -82 0
82 -67 -81 0
81 67 82 0
-82 0
68 83 0
69 83 0
70 83 0
71 83 0
72 83 0
73 83 0
74 83 0
75 83 0
76 83 0
77 83 0
78 83 0
79 83 0
-84 0
83 -85 -86 0
85 -83 -86 0
86 -83 -85 0
85 83 86 0
-86 0
69 87 0
70 87 0
71 87 0
72 87 0
73 87 0
74 87 0
75 87 0
76 87 0
77 87 0
78 87 0
79 87 0
-88 0
87 -89 -90 0
89 -87 -90 0
90 -87 -89 0
89 87 90 0
-90 0
70 91 0
71 91 0
72 91 0
73 91 0
74 91 0
75 91 0
76 91 0
77 91 0
78 91 0
79 91 0
-92 0
91 -93 -94 0
93 -91 -94 0
94 -91 -93 0
93 91 94 0
-94 0
71 95 0
72 95 0
73 95 0
74 95 0
75 95 0
76 95 0
77 95 0
78 95 0
79 95 0
-96 0
95 -97 -98 0
97 -95 -98 0
98 -95 -97 0
97 95 98 0
-98 0
72 99 0
73 99 0
74 99 0
75 99 0
76 99 0
77 99 0
78 99 0
79 99 0
-100 0
99 -101 -102 0
101 -99 -102 0
102 -99 -101 0
101 99 102 0
-102 0
99 -103 -104 0
103 -99 -104 0
104 -99 -103 0
103 99 104 0
-104 0
99 -105 -106 0
105 -99 -106 0
106 -99 -105 0
105 99 106 0
-106 0
99 -107 -108 0
107 -99 -108 0
108 -99 -107 0
107 99 108 0
-108 0
99 -109 -110 0
109 -99 -110 0
110 -99 -109 0
109 99 110 0
-110 0
99 -111 -112 0
111 -99 -112 0
112 -99 -111 0
111 99 112 0
-112 0
99 -113 -114 0
113 -99 -114 0
114 -99 -113 0
113 99 114 0
-114 0
99 -115 -116 0
115 -99 -116 0
116 -99 -115 0
115 99 116 0
-116 0
117 118 0
119 118 0
120 118 0
121 118 0
122 118 0
123 118 0
124 118 0
125 118 0
126 118 0
127 118 0
128 118 0
129 118 0
130 118 0
131 118 0
-132 0
-133 118 -134 0
133 -118 -134 0
134 -118 -133 0
133 118 134 0
-134 0
119 135 0
120 135 0
121 135 0
122 135 0
123 135 0
124 135 0
125 135 0
126 135 0
127 135 0
128 135 0
129 135 0
130 135 0
131 135 0
-136 0
135 -137 -138 0
137 -135 -138 0
138 -135 -137 0
137 135 138 0
-138 0
120 139 0
121 139 0
122 139 0
123 139 0
124 139 0
125 139 0
126 139 0
127 139 0
128 139 0
129 139 0
130 139 0
131 139 0
-140 0
139 -141 -142 0
141 -139 -142 0
142 -139 -141 0
141 139 142 0
-142 0
121 143 0
122 143 0
123 143 0
124 143 0
125 143 0
126 143 0
127 143 0
128 143 0
129 143 0
130 143 0
131 143 0
-144 0
143 -145 -146 0
145 -143 -146 0
146 -143 -145 0
145 143 146 0
-146 0
122 147 0
123 147 0
124 147 0
125 147 0
126 147 0
127 147 0
128 147 0
129 147 0
130 147 0
131 147 0
-148 0
147 -149 -150 0
149 -147 -150 0
150 -147 -149 0
149 147 150 0
-150 0
123 151 0
124 151 0
125 151 0
126 151 0
127 151 0
128 151 0
129 151 0
130 151 0
131 151 0
-152 0
151 -153 -154 0
153 -151 -154 0
154 -151 -153 0
153 151 154 0
-154 0
124 155 0
125 155 0
126 155 0
127 155 0
128 155 0
129 155 0
130 155 0
131 155 0
-156 0
155 -157 -158 0
157 -155 -158 0
158 -155 -157 0
157 155 158 0
-158 0
125 159 0
126 159 0
127 159 0
128 159 0
129 159 0
130 159 0
131 159 0
-160 0
159 -161 -162 0
161 -159 -162 0
162 -159 -161 0
161 159 162 0
-162 0
126 163 0
127 163 0
128 163 0
129 163 0
130 163 0
131 163 0
-164 0
163 -165 -166 0
165 -163 -166 0
166 -163 -165 0
165 163 166 0
-166 0
163 -167 -168 0
167 -163 -168 0
168 -163 -167 0
167 163 168 0
-168 0
163 -169 -170 0
169 -163 -170 0
170 -163 -169 0
169 163 170 0
-170 0
163 -171 -172 0
171 -163 -172 0
172 -163 -171 0
171 163 172 0
-172 0
163 -173 -174 0
173 -163 -174 0
174 -163 -173 0
173 163 174 0
-174 0
163 -175 -176 0
175 -163 -176 0
176 -163 -175 0
175 163 176 0
-176 0
177 178 0
179 178 0
180 178 0
181 178 0
182 178 0
183 178 0
184 178 0
185 178 0
186 178 0
187 178 0
188 178 0
189 178 0
-190 0
-191 178 -192 0
191 -178 -192 0
192 -178 -191 0
191 178 192 0
-192 0
179 193 0
180 193 0
181 193 0
182 193 0
183 193 0
184 193 0
185 193 0
186 193 0
187 193 0
188 193 0
189 193 0
-194 0
193 -195 -196 0
195 -193 -196 0
196 -193 -195 0
195 193 196 0
-196 0
180 197 0
181 197 0
182 197 0
183 197 0
184 197 0
185 197 0
186 197 0
187 197 0
188 197 0
189 197 0
-198 0
197 -199 -200 0
199 -197 -200 0
200 -197 -199 0
199 197 200 0
-200 0
181 201 0
182 201 0
183 201 0
184 201 0
185 201 0
186 201 0
187 201 0
188 201 0
189 201 0
-202 0
201 -203 -204 0
203 -201 -204 0
204 -201 -203 0
203 201 204 0
-204 0
182 205 0
183 205 0
184 205 0
185 205 0
186 205 0
187 205 0
188 205 0
189 205 0
-206 0
205 -207 -208 0
207 -205 -208 0
208 -205 -207 0
207 205 208 0
-208 0
183 209 0
184 209 0
185 209 0
186 209 0
187 209 0
188 209 0
189 209 0
-210 0
209 -211 -212 0
211 -209 -212 0
212 -209 -211 0
211 209 212 0
-212 0
209 -213 -214 0
213 -209 -214 0
214 -209 -213 0
213 209 214 0
-214 0
209 -215 -216 0
215 -209 -216 0
216 -209 -215 0
215 209 216 0
-216 0
209 -217 -218 0
217 -209 -218 0
218 -209 -217 0
217 209 218 0
-218 0
209 -219 -220 0
219 -209 -220 0
220 -209 -219 0
219 209 220 0
-220 0
209 -221 -222 0
221 -209 -222 0
222 -209 -221 0
221 209 222 0
-222 0
209 -223 -224 0
223 -209 -224 0
224 -209 -223 0
223 209 224 0
-224 0
225 226 0
227 226 0
228 226 0
229 226 0
230 226 0
231 226 0
232 226 0
233 226 0
234 226 0
235 226 0
236 226 0
237 226 0
238 226 0
239 226 0
-240 0
-241 226 -242 0
241 -226 -242 0
242 -226 -241 0
241 226 242 0
-242 0
227 243 0
228 243 0
229 243 0
230 243 0
231 243 0
232 243 0
233 243 0
234 243 0
235 243 0
236 243 0
237 243 0
238 243 0
239 243 0
-244 0
243 -245 -246 0
245 -243 -246 0
246 -243 -245 0
245 243 246 0
-246 0
228 247 0
229 247 0
230 247 0
231 247 0
232 247 0
233 247 0
234 247 0
235 247 0
236 247 0
237 247 0
238 247 0
239 247 0
-248 0
247 -249 -250 0
249 -247 -250 0
250 -247 -249 0
249 247 250 0
-250 0
229 251 0
230 251 0
231 251 0
232 251 0
233 251 0
234 251 0
235 251 0
236 251 0
237 251 0
238 251 0
239 251 0
-252 0
251 -253 -254 0
253 -251 -254 0
254 -251 -253 0
253 251 254 0
-254 0
230 255 0
231 255 0
232 255 0
233 255 0
234 255 0
235 255 0
236 255 0
237 255 0
238 255 0
239 255 0
-256 0
255 -257 -258 0
257 -255 -258 0
258 -255 -257 0
257 255 258 0
-258 0
231 259 0
232 259 0
233 259 0
234 259 0
235 259 0
236 259 0
237 259 0
238 259 0
239 259 0
-260 0
259 -261 -262 0
261 -259 -262 0
262 -259 -261 0
261 259 262 0
-262 0
232 263 0
233 263 0
234 263 0
235 263 0
236 263 0
237 263 0
238 263 0
239 263 0
-264 0
263 -265 -266 0
265 -263 -266 0
266 -263 -265 0
265 263 266 0
-266 0
263 -267 -268 0
267 -263 -268 0
268 -263 -267 0
267 263 268 0
-268 0
263 -269 -270 0
269 -263 -270 0
270 -263 -269 0
269 263 270 0
-270 0
263 -271 -272 0
271 -263 -272 0
272 -263 -271 0
271 263 272 0
-272 0
263 -273 -274 0
273 -263 -274 0
274 -263 -273 0
273 263 274 0
-274 0
263 -275 -276 0
275 -263 -276 0
276 -263 -275 0
275 263 276 0
-276 0
263 -277 -278 0
277 -263 -278 0
278 -263 -277 0
277 263 278 0
-278 0
263 -279 -280 0
279 -263 -280 0
280 -263 -279 0
279 263 280 0
-280 0
281 282 0
283 282 0
284 282 0
285 282 0
286 282 0
287 282 0
288 282 0
289 282 0
290 282 0
291 282 0
292 282 0
293 282 0
294 282 0
-295 0
-296 282 -297 0
296 -282 -297 0
297 -282 -296 0
296 282 297 0
-297 0
283 298 0
284 298 0
285 298 0
286 298 0
287 298 0
288 298 0
289 298 0
290 298 0
291 298 0
292 298 0
293 298 0
294 298 0
-299 0
298 -300 -301 0
300 -298 -301 0
301 -298 -300 0
300 298 301 0
-301 0
284 302 0
285 302 0
286 302 0
287 302 0
288 302 0
289 302 0
290 302 0
291 302 0
292 302 0
293 302 0
294 302 0
-303 0
302 -304 -305 0
304 -302 -305 0
305 -302 -304 0
304 302 305 0
-305 0
285 306 0
286 306 0
287 306 0
288 306 0
289 306 0
290 306 0
291 306 0
292 306 0
293 306 0
294 306 0
-307 0
306 -308 -309 0
308 -306 -309 0
309 -306 -308 0
308 306 309 0
-309 0
286 310 0
287 310 0
288 310 0
289 310 0
290 310 0
291 310 0
292 310 0
293 310 0
294 310 0
-311 0
310 -312 -313 0
312 -310 -313 0
313 -310 -312 0
312 310 313 0
-313 0
287 314 0
288 314 0
289 314 0
290 314 0
291 314 0
292 314 0
293 314 0
294 314 0
-315 0
314 -316 -317 0
316 -314 -317 0
317 -314 -316 0
316 314 317 0
-317 0
288 318 0
289 318 0
290 318 0
291 318 0
292 318 0
293 318 0
294 318 0
-319 0
318 -320 -321 0
320 -318 -321 0
321 -318 -320 0
320 318 321 0
-321 0
318 -322 -323 0
322 -318 -323 0
323 -318 -322 0
322 318 323 0
-323 0
318 -324 -325 0
324 -318 -325 0
325 -318 -324 0
324 318 325 0
-325 0
318 -326 -327 0
326 -318 -327 0
327 -318 -326 0
326 318 327 0
-327 0
318 -328 -329 0
328 -318 -329 0
329 -318 -328 0
328 318 329 0
-329 0
318 -330 -331 0
330 -318 -331 0
331 -318 -330 0
330 318 331 0
-331 0
318 -332 -333 0
332 -318 -333 0
333 -318 -332 0
332 318 333 0
-333 0
72 334 0
73 334 0
74 334 0
75 334 0
76 334 0
77 334 0
78 334 0
79 334 0
335 334 0
336 334 0
337 334 0
338 334 0
339 334 0
340 334 0
341 334 0
-342 0
-343 334 -344 0
343 -334 -344 0
344 -334 -343 0
343 334 344 0
-344 0
72 345 0
73 345 0
74 345 0
75 345 0
76 345 0
77 345 0
78 345 0
79 345 0
336 345 0
337 345 0
338 345 0
339 345 0
340 345 0
341 345 0
-346 0
345 -347 -348 0
347 -345 -348 0
348 -345 -347 0
347 345 348 0
-348 0
72 349 0
73 349 0
74 349 0
75 349 0
76 349 0
77 349 0
78 349 0
79 349 0
337 349 0
338 349 0
339 349 0
340 349 0
341 349 0
-350 0
349 -351 -352 0
351 -349 -352 0
352 -349 -351 0
351 349 352 0
-352 0
72 353 0
73 353 0
74 353 0
75 353 0
76 353 0
77 353 0
78 353 0
79 353 0
338 353 0
339 353 0
340 353 0
341 353 0
-354 0
353 -355 -356 0
355 -353 -356 0
356 -353 -355 0
355 353 356 0
-356 0
72 357 0
73 357 0
74 357 0
75 357 0
76 357 0
77 357 0
78 357 0
79 357 0
339 357 0
340 357 0
341 357 0
-358 0
357 -359 -360 0
359 -357 -360 0
360 -357 -359 0
359 357 360 0
-360 0
72 361 0
73 361 0
74 361 0
75 361 0
76 361 0
77 361 0
78 361 0
79 361 0
340 361 0
341 361 0
-362 0
361 -363 -364 0
363 -361 -364 0
364 -361 -363 0
363 361 364 0
-364 0
72 365 0
73 365 0
74 365 0
75 365 0
76 365 0
77 365 0
78 365 0
79 365 0
341 365 0
-366 0
365 -367 -368 0
367 -365 -368 0
368 -365 -367 0
367 365 368 0
-368 0
369 370 0
371 370 0
372 370 0
373 370 0
374 370 0
375 370 0
376 370 0
377 370 0
378 370 0
379 370 0
-380 0
-381 370 -382 0
381 -370 -382 0
382 -370 -381 0
381 370 382 0
-382 0
371 383 0
372 383 0
373 383 0
374 383 0
375 383 0
376 383 0
377 383 0
378 383 0
379 383 0
-384 0
383 -385 -386 0
385 -383 -386 0
386 -383 -385 0
385 383 386 0
-386 0
372 387 0
373 387 0
374 387 0
375 387 0
376 387 0
377 387 0
378 387 0
379 387 0
-388 0
387 -389 -390 0
389 -387 -390 0
390 -387 -389 0
389 387 390 0
-390 0
373 391 0
374 391 0
375 391 0
376 391 0
377 391 0
378 391 0
379 391 0
-392 0
391 -393 -394 0
393 -391 -394 0
394 -391 -393 0
393 391 394 0
-394 0
374 395 0
375 395 0
376 395 0
377 395 0
378 395 0
379 395 0
-396 0
395 -397 -398 0
397 -395 -398 0
398 -395 -397 0
397 395 398 0
-398 0
395 -399 -400 0
399 -395 -400 0
400 -395 -399 0
399 395 400 0
-400 0
395 -401 -402 0
401 -395 -402 0
402 -395 -401 0
401 395 402 0
-402 0
395 -403 -404 0
403 -395 -404 0
404 -395 -403 0
403 395 404 0
-404 0
395 -405 -406 0
405 -395 -406 0
406 -395 -405 0
405 395 406 0
-406 0
395 -407 -408 0
407 -395 -408 0
408 -395 -407 0
407 395 408 0
-408 0
409 410 0
411 410 0
412 410 0
413 410 0
414 410 0
415 410 0
416 410 0
417 410 0
418 410 0
419 410 0
420 410 0
421 410 0
422 410 0
-423 0
-424 410 -425 0
424 -410 -425 0
425 -410 -424 0
424 410 425 0
-425 0
411 426 0
412 426 0
413 426 0
414 426 0
415 426 0
416 426 0
417 426 0
418 426 0
419 426 0
420 426 0
421 426 0
422 426 0
-427 0
426 -428 -429 0
428 -426 -429 0
429 -426 -428 0
428 426 429 0
-429 0
412 430 0
413 430 0
414 430 0
415 430 0
416 430 0
417 430 0
418 430 0
419 430 0
420 430 0
421 430 0
422 430 0
-431 0
430 -432 -433 0
432 -430 -433 0
433 -430 -432 0
432 430 433 0
-433 0
413 434 0
414 434 0
415 434 0
416 434 0
417 434 0
418 434 0
419 434 0
420 434 0
421 434 0
422 434 0
-435 0
434 -436 -437 0
436 -434 -437 0
437 -434 -436 0
436 434 437 0
-437 0
414 438 0
415 438 0
416 438 0
417 438 0
418 438 0
419 438 0
420 438 0
421 438 0
422 438 0
-439 0
438 -440 -441 0
440 -438 -441 0
441 -438 -440 0
440 438 441 0
-441 0
415 442 0
416 442 0
417 442 0
418 442 0
419 442 0
420 442 0
421 442 0
422 442 0
-443 0
442 -444 -445 0
444 -442 -445 0
445 -442 -444 0
444 442 445 0
-445 0
442 -446 -447 0
446 -442 -447 0
447 -442 -446 0
446 442 447 0
-447 0
442 -448 -449 0
448 -442 -449 0
449 -442 -448 0
448 442 449 0
-449 0
442 -450 -451 0
450 -442 -451 0
451 -442 -450 0
450 442 451 0
-451 0
442 -452 -453 0
452 -442 -453 0
453 -442 -452 0
452 442 453 0
-453 0
442 -454 -455 0
454 -442 -455 0
455 -442 -454 0
454 442 455 0
-455 0
442 -456 -457 0
456 -442 -457 0
457 -442 -456 0
456 442 457 0
-457 0
442 -458 -459 0
458 -442 -459 0
459 -442 -458 0
458 442 459 0
-459 0
460 461 0
462 461 0
463 461 0
464 461 0
465 461 0
466 461 0
467 461 0
468 461 0
469 461 0
470 461 0
471 461 0
472 461 0
473 461 0
-474 0
-475 461 -476 0
475 -461 -476 0
476 -461 -475 0
475 461 476 0
-476 0
462 477 0
463 477 0
464 477 0
465 477 0
466 477 0
467 477 0
468 477 0
469 477 0
470 477 0
471 477 0
472 477 0
473 477 0
-478 0
477 -479 -480 0
479 -477 -480 0
480 -477 -479 0
479 477 480 0
-480 0
463 481 0
464 481 0
465 481 0
466 481 0
467 481 0
468 481 0
469 481 0
470 481 0
471 481 0
472 481 0
473 481 0
-482 0
481 -483 -484 0
483 -481 -484 0
484 -481 -483 0
483 481 484 0
-484 0
464 485 0
465 485 0
466 485 0
467 485 0
468 485 0
469 485 0
470 485 0
471 485 0
472 485 0
473 485 0
-486 0
485 -487 -488 0
487 -485 -488 0
488 -485 -487 0
487 485 488 0
-488 0
465 489 0
466 489 0
467 489 0
468 489 0
469 489 0
470 489 0
471 489 0
472 489 0
473 489 0
-490 0
489 -491 -492 0
491 -489 -492 0
492 -489 -491 0
491 489 492 0
-492 0
466 493 0
467 493 0
468 493 0
469 493 0
470 493 0
471 493 0
472 493 0
473 493 0
-494 0
493 -495 -496 0
495 -493 -496 0
496 -493 -495 0
495 493 496 0
-496 0
467 497 0
468 497 0
469 497 0
470 497 0
471 497 0
472 497 0
473 497 0
-498 0
497 -499 -500 0
499 -497 -500 0
500 -497 -499 0
499 497 500 0
-500 0
497 -501 -502 0
501 -497 -502 0
502 -497 -501 0
501 497 502 0
-502 0
497 -503 -504 0
503 -497 -504 0
504 -497 -503 0
503 497 504 0
-504 0
497 -505 -506 0
505 -497 -506 0
506 -497 -505 0
505 497 506 0
-506 0
497 -507 -508 0
507 -497 -508 0
508 -497 -507 0
507 497 508 0
-508 0
497 -509 -510 0
509 -497 -510 0
510 -497 -509 0
509 497 510 0
-510 0
497 -511 -512 0
511 -497 -512 0
512 -497 -511 0
511 497 512 0
-512 0
513 -2 -514 0
2 -513 -514 0
-513 -2 514 0
2 513 514 0
-514 0
515 -3 -516 0
3 -515 -516 0
-515 -3 516 0
3 515 516 0
-516 0
517 -5 -518 0
5 -517 -518 0
-517 -5 518 0
5 517 518 0
-518 0
519 -6 -520 0
6 -519 -520 0
-519 -6 520 0
6 519 520 0
-520 0
521 -7 -522 0
7 -521 -522 0
-521 -7 522 0
7 521 522 0
-522 0
523 -8 -524 0
8 -523 -524 0
-523 -8 524 0
8 523 524 0
-524 0
525 -9 -526 0
9 -525 -526 0
-525 -9 526 0
9 525 526 0
-526 0
527 -10 -528 0
10 -527 -528 0
-527 -10 528 0
10 527 528 0
-528 0
529 -11 -530 0
11 -529 -530 0
-529 -11 530 0
11 529 530 0
-530 0
531 -12 -532 0
12 -531 -532 0
-531 -12 532 0
12 531 532 0
-532 0
533 -13 -534 0
13 -533 -534 0
-533 -13 534 0
13 533 534 0
-534 0
535 -14 -536 0
14 -535 -536 0
-535 -14 536 0
14 535 536 0
-536 0
537 -15 -538 0
15 -537 -538 0
-537 -15 538 0
15 537 538 0
-538 0
539 -16 -540 0
16 -539 -540 0
-539 -16 540 0
16 539 540 0
-540 0
541 -17 -542 0
17 -541 -542 0
-541 -17 542 0
17 541 542 0
-542 0
543 -18 -544 0
18 -543 -544 0
-543 -18 544 0
18 543 544 0
-544 0
545 -66 -546 0
66 -545 -546 0
-545 -66 546 0
66 545 546 0
-546 0
547 -68 -548 0
68 -547 -548 0
-547 -68 548 0
68 547 548 0
-548 0
549 -69 -550 0
69 -549 -550 0
-549 -69 550 0
69 549 550 0
-550 0
551 -70 -552 0
70 -551 -552 0
-551 -70 552 0
70 551 552 0
-552 0
553 -71 -554 0
71 -553 -554 0
-553 -71 554 0
71 553 554 0
-554 0
555 -72 -556 0
72 -555 -556 0
-555 -72 556 0
72 555 556 0
-556 0
557 -73 -558 0
73 -557 -558 0
-557 -73 558 0
73 557 558 0
-558 0
559 -74 -560 0
74 -559 -560 0
-559 -74 560 0
74 559 560 0
-560 0
561 -75 -562 0
75 -561 -562 0
-561 -75 562 0
75 561 562 0
-562 0
563 -76 -564 0
76 -563 -564 0
-563 -76 564 0
76 563 564 0
-564 0
565 -77 -566 0
77 -565 -566 0
-565 -77 566 0
77 565 566 0
-566 0
567 -78 -568 0
78 -567 -568 0
-567 -78 568 0
78 567 568 0
-568 0
569 -79 -570 0
79 -569 -570 0
-569 -79 570 0
79 569 570 0
-570 0
571 -117 -572 0
117 -571 -572 0
-571 -117 572 0
117 571 572 0
-572 0
573 -119 -574 0
119 -573 -574 0
-573 -119 574 0
119 573 574 0
-574 0
575 -120 -576 0
120 -575 -576 0
-575 -120 576 0
120 575 576 0
-576 0
577 -121 -578 0
121 -577 -578 0
-577 -121 578 0
121 577 578 0
-578 0
579 -122 -580 0
122 -579 -580 0
-579 -122 580 0
122 579 580 0
-580 0
581 -123 -582 0
123 -581 -582 0
-581 -123 582 0
123 581 582 0
-582 0
583 -124 -584 0
124 -583 -584 0
-583 -124 584 0
124 583 584 0
-584 0
585 -125 -586 0
125 -585 -586 0
-585 -125 586 0
125 585 586 0
-586 0
587 -126 -588 0
126 -587 -588 0
-587 -126 588 0
126 587 588 0
-588 0
589 -127 -590 0
127 -589 -590 0
-589 -127 590 0
127 589 590 0
-590 0
591 -128 -592 0
128 -591 -592 0
-591 -128 592 0
128 591 592 0
-592 0
593 -129 -594 0
129 -593 -594 0
-593 -129 594 0
129 593 594 0
-594 0
595 -130 -596 0
130 -595 -596 0
-595 -130 596 0
130 595 596 0
-596 0
597 -131 -598 0
131 -597 -598 0
-597 -131 598 0
131 597 598 0
-598 0
599 -177 -600 0
177 -599 -600 0
-599 -177 600 0
177 599 600 0
-600 0
601 -179 -602 0
179 -601 -602 0
-601 -179 602 0
179 601 602 0
-602 0
603 -180 -604 0
180 -603 -604 0
-603 -180 604 0
180 603 604 0
-604 0
605 -181 -606 0
181 -605 -606 0
-605 -181 606 0
181 605 606 0
-606 0
607 -182 -608 0
182 -607 -608 0
-607 -182 608 0
182 607 608 0
-608 0
609 -183 -610 0
183 -609 -610 0
-609 -183 610 0
183 609 610 0
-610 0
611 -184 -612 0
184 -611 -612 0
-611 -184 612 0
184 611 612 0
-612 0
613 -185 -614 0
185 -613 -614 0
-613 -185 614 0
185 613 614 0
-614 0
615 -186 -616 0
186 -615 -616 0
-615 -186 616 0
186 615 616 0
-616 0
617 -187 -618 0
187 -617 -618 0
-617 -187 618 0
187 617 618 0
-618 0
619 -188 -620 0
188 -619 -620 0
-619 -188 620 0
188 619 620 0
-620 0
621 -189 -622 0
189 -621 -622 0
-621 -189 622 0
189 621 622 0
-622 0
623 -225 -624 0
225 -623 -624 0
-623 -225 624 0
225 623 624 0
-624 0
625 -227 -626 0
227 -625 -626 0
-625 -227 626 0
227 625 626 0
-626 0
627 -228 -628 0
228 -627 -628 0
-627 -228 628 0
228 627 628 0
-628 0
629 -229 -630 0
229 -629 -630 0
-629 -229 630 0
229 629 630 0
-630 0
631 -230 -632 0
230 -631 -632 0
-631 -230 632 0
230 631 632 0
-632 0
633 -231 -634 0
231 -633 -634 0
-633 -231 634 0
231 633 634 0
-634 0
635 -232 -636 0
232 -635 -636 0
-635 -232 636 0
232 635 636 0
-636 0
637 -233 -638 0
233 -637 -638 0
-637 -233 638 0
233 637 638 0
-638 0
639 -234 -640 0
234 -639 -640 0
-639 -234 640 0
234 639 640 0
-640 0
641 -235 -642 0
235 -641 -642 0
-641 -235 642 0
235 641 642 0
-642 0
643 -236 -644 0
236 -643 -644 0
-643 -236 644 0
236 643 644 0
-644 0
645 -237 -646 0
237 -645 -646 0
-645 -237 646 0
237 645 646 0
-646 0
647 -238 -648 0
238 -647 -648 0
-647 -238 648 0
238 647 648 0
-648 0
649 -239 -650 0
239 -649 -650 0
-649 -239 650 0
239 649 650 0
-650 0
651 -281 -652 0
281 -651 -652 0
-651 -281 652 0
281 651 652 0
-652 0
653 -283 -654 0
283 -653 -654 0
-653 -283 654 0
283 653 654 0
-654 0
655 -284 -656 0
284 -655 -656 0
-655 -284 656 0
284 655 656 0
-656 0
657 -285 -658 0
285 -657 -658 0
-657 -285 658 0
285 657 658 0
-658 0
659 -286 -660 0
286 -659 -660 0
-659 -286 660 0
286 659 660 0
-660 0
661 -287 -662 0
287 -661 -662 0
-661 -287 662 0
287 661 662 0
-662 0
663 -288 -664 0
288 -663 -664 0
-663 -288 664 0
288 663 664 0
-664 0
665 -289 -666 0
289 -665 -666 0
-665 -289 666 0
289 665 666 0
-666 0
667 -290 -668 0
290 -667 -668 0
-667 -290 668 0
290 667 668 0
-668 0
669 -291 -670 0
291 -669 -670 0
-669 -291 670 0
291 669 670 0
-670 0
671 -292 -672 0
292 -671 -672 0
-671 -292 672 0
292 671 672 0
-672 0
673 -293 -674 0
293 -673 -674 0
-673 -293 674 0
293 673 674 0
-674 0
675 -294 -676 0
294 -675 -676 0
-675 -294 676 0
294 675 676 0
-676 0
677 -335 -678 0
335 -677 -678 0
-677 -335 678 0
335 677 678 0
-678 0
679 -336 -680 0
336 -679 -680 0
-679 -336 680 0
336 679 680 0
-680 0
681 -337 -682 0
337 -681 -682 0
-681 -337 682 0
337 681 682 0
-682 0
683 -338 -684 0
338 -683 -684 0
-683 -338 684 0
338 683 684 0
-684 0
685 -339 -686 0
339 -685 -686 0
-685 -339 686 0
339 685 686 0
-686 0
687 -340 -688 0
340 -687 -688 0
-687 -340 688 0
340 687 688 0
-688 0
689 -341 -690 0
341 -689 -690 0
-689 -341 690 0
341 689 690 0
-690 0
691 -369 -692 0
369 -691 -692 0
-691 -369 692 0
369 691 692 0
-692 0
693 -371 -694 0
371 -693 -694 0
-693 -371 694 0
371 693 694 0
-694 0
695 -372 -696 0
372 -695 -696 0
-695 -372 696 0
372 695 696 0
-696 0
697 -373 -698 0
373 -697 -698 0
-697 -373 698 0
373 697 698 0
-698 0
699 -374 -700 0
374 -699 -700 0
-699 -374 700 0
374 699 700 0
-700 0
701 -375 -702 0
375 -701 -702 0
-701 -375 702 0
375 701 702 0
-702 0
703 -376 -704 0
376 -703 -704 0
-703 -376 704 0
376 703 704 0
-704 0
705 -377 -706 0
377 -705 -706 0
-705 -377 706 0
377 705 706 0
-706 0
707 -378 -708 0
378 -707 -708 0
-707 -378 708 0
378 707 708 0
-708 0
709 -379 -710 0
379 -709 -710 0
-709 -379 710 0
379 709 710 0
-710 0
711 -409 -712 0
409 -711 -712 0
-711 -409 712 0
409 711 712 0
-712 0
713 -411 -714 0
411 -713 -714 0
-713 -411 714 0
411 713 714 0
-714 0
715 -412 -716 0
412 -715 -716 0
-715 -412 716 0
412 715 716 0
-716 0
717 -413 -718 0
413 -717 -718 0
-717 -413 718 0
413 717 718 0
-718 0
719 -414 -720 0
414 -719 -720 0
-719 -414 720 0
414 719 720 0
-720 0
721 -415 -722 0
415 -721 -722 0
-721 -415 722 0
415 721 722 0
-722 0
723 -416 -724 0
416 -723 -724 0
-723 -416 724 0
416 723 724 0
-724 0
725 -417 -726 0
417 -725 -726 0
-725 -417 726 0
417 725 726 0
-726 0
727 -418 -728 0
418 -727 -728 0
-727 -418 728 0
418 727 728 0
-728 0
729 -419 -730 0
419 -729 -730 0
-729 -419 730 0
419 729 730 0
-730 0
731 -420 -732 0
420 -731 -732 0
-731 -420 732 0
420 731 732 0
-732 0
733 -421 -734 0
421 -733 -734 0
-733 -421 734 0
421 733 734 0
-734 0
735 -422 -736 0
422 -735 -736 0
-735 -422 736 0
422 735 736 0
-736 0
737 -460 -738 0
460 -737 -738 0
-737 -460 738 0
460 737 738 0
-738 0
739 -462 -740 0
462 -739 -740 0
-739 -462 740 0
462 739 740 0
-740 0
741 -463 -742 0
463 -741 -742 0
-741 -463 742 0
463 741 742 0
-742 0
743 -464 -744 0
464 -743 -744 0
-743 -464 744 0
464 743 744 0
-744 0
745 -465 -746 0
465 -745 -746 0
-745 -465 746 0
465 745 746 0
-746 0
747 -466 -748 0
466 -747 -748 0
-747 -466 748 0
466 747 748 0
-748 0
749 -467 -750 0
467 -749 -750 0
-749 -467 750 0
467 749 750 0
-750 0
751 -468 -752 0
468 -751 -752 0
-751 -468 752 0
468 751 752 0
-752 0
753 -469 -754 0
469 -753 -754 0
-753 -469 754 0
469 753 754 0
-754 0
755 -470 -756 0
470 -755 -756 0
-755 -470 756 0
470 755 756 0
-756 0
757 -471 -758 0
471 -757 -758 0
-757 -471 758 0
471 757 758 0
-758 0
759 -472 -760 0
472 -759 -760 0
-759 -472 760 0
472 759 760 0
-760 0
761 -473 -762 0
473 -761 -762 0
-761 -473 762 0
473 761 762 0
-762 0
1 0
-20 0
-81 0
-133 0
-191 0
-241 0
-296 0
-343 0
-381 0
-424 0
-475 0
